proyfinal/src/viki/013/andrea/andrea-localstore/experimentInOfficeAgust.take6/worker_3/e530a250-d318-44d4-91d7-962f7bea877a.als.cnf.out
Reading from standard input... Use '--help' for help.
============================[ Problem Statistics ]=============================
|                                                                             |
|  Number of variables:         87638                                         |
|  Number of clauses:          161767                                         |
|  Parse time:                   0.04 s                                       |
|                                                                             |
============================[ Search Statistics ]==============================
| Conflicts |          ORIGINAL         |          LEARNT          | Progress |
|           |    Vars  Clauses Literals |    Limit  Clauses Lit/Cl |          |
===============================================================================
|       100 |   63835   110376   275902 |    40471      100      8 | 27.161 % |
|       250 |   63811   110360   275858 |    44518      246     11 | 27.188 % |
|       475 |   63790   110198   275484 |    48970      468     50 | 27.212 % |
|       812 |   63790   110154   275394 |    53867      805     75 | 27.212 % |
|      1318 |   52096    76474   192380 |    59253     1237    154 | 40.555 % |
|      2077 |   51904    75937   191046 |    65179     1990    114 | 40.775 % |
|      3216 |   51592    74675   188044 |    71697     3080     92 | 41.131 % |
|      4924 |   50951    72372   182337 |    78866     4553     82 | 41.862 % |
|      7486 |   50121    69453   175204 |    86753     6621     74 | 42.809 % |
|     11330 |   49762    68162   172082 |    95428    10426     68 | 43.219 % |
===============================================================================
restarts              : 63
conflicts             : 17085          (7641 /sec)
decisions             : 55704          (0.00 % random) (24913 /sec)
propagations          : 24693521       (11044059 /sec)
conflict literals     : 1012639        (41.99 % deleted)
Memory used           : 38.06 MB
CPU time              : 2.23591 s

UNSATISFIABLE
